198 21005
1 2 7 6 3 4 5 8 9 10 11 12 13 58 69 71 86 100 85 72 84 87 99 88 98 97 96 81 65 76 77 94 93 102 91 80 105 106 111 127 170 126 169 108 109 110 107 112 113 114 119 120 124 125 131 133 130 132 134 140 143 146 149 153 152 148 147 142 141 135 136 129 128 171 182 178 179 194 195 198 197 196 186 193 192 187 191 190 168 167 63 49 48 35 25 24 26 27 34 33 46 52 53 62 75 82 74 66 61 54 45 38 31 14 15 16 17 18 19 20 21 22 23 28 30 29 32 37 36 39 47 51 50 64 78 79 92 104 115 122 121 123 139 154 155 156 157 158 159 160 161 162 145 144 137 172 176 173 174 175 177 181 183 180 185 184 188 189 166 165 164 163 151 150 138 118 117 116 103 101 95 90 89 83 73 70 67 68 60 55 59 56 44 43 42 57 41 40 
